(set-option :produce-models true)
(set-logic QF_UF)
(declare-fun p45() Bool)
(declare-fun p11() Bool)
(declare-fun p44() Bool)
(declare-fun p33() Bool)
(declare-fun p58() Bool)
(declare-fun p39() Bool)
(declare-fun p15() Bool)
(declare-fun p25() Bool)
(declare-fun p27() Bool)
(declare-fun p23() Bool)
(declare-fun p9() Bool)
(declare-fun p5() Bool)
(declare-fun p40() Bool)
(declare-fun p32() Bool)
(declare-fun p42() Bool)
(declare-fun p52() Bool)
(declare-fun p55() Bool)
(declare-fun p24() Bool)
(declare-fun p13() Bool)
(declare-fun p20() Bool)
(declare-fun p3() Bool)
(declare-fun p14() Bool)
(declare-fun p1() Bool)
(declare-fun p47() Bool)
(declare-fun p30() Bool)
(declare-fun p10() Bool)
(declare-fun p43() Bool)
(declare-fun p49() Bool)
(declare-fun p26() Bool)
(declare-fun p4() Bool)
(declare-fun p57() Bool)
(declare-fun p8() Bool)
(declare-fun p41() Bool)
(declare-fun p17() Bool)
(declare-fun p6() Bool)
(declare-fun p12() Bool)
(declare-fun p51() Bool)
(declare-fun p2() Bool)
(declare-fun p36() Bool)
(declare-fun p0() Bool)
(declare-fun p7() Bool)
(declare-fun p21() Bool)
(declare-fun p16() Bool)
(declare-fun p35() Bool)
(declare-fun p34() Bool)
(declare-fun p29() Bool)
(declare-fun p54() Bool)
(declare-fun p56() Bool)
(declare-fun p53() Bool)
(declare-fun p28() Bool)
(declare-fun p46() Bool)
(declare-fun p50() Bool)
(declare-fun p59() Bool)
(declare-fun p18() Bool)
(declare-fun p37() Bool)
(declare-fun p22() Bool)
(declare-fun p38() Bool)
(declare-fun p19() Bool)
(declare-fun p48() Bool)
(declare-fun p31() Bool)
(assert
(and (or p45 (not p11) p44) (or p33 (not p58) p39) (or (not p15) (not p25) p27) (or (not p23) (not p9) p5) (or (not p40) p32 (not p42)) (or p39 p52 p58) (or p55 p24 (not p9)) (or (not p13) p20 (not p3)) (or (not p25) (not p14) (not p1)) (or p47 p3 (not p32)) (or (not p30) (not p10) p43) (or (not p49) p15 (not p42)) (or p26 (not p25) (not p52)) (or p4 p57 p23) (or p8 p52 p41) (or p11 p17 p33) (or (not p32) p6 (not p5)) (or (not p6) (not p47) (not p14)) (or p1 (not p12) p32) (or p44 p55 p5) (or p51 p30 p2) (or (not p57) p39 p32) (or p2 (not p36) p0) (or p23 (not p47) p7) (or (not p40) (not p21) (not p16)) (or (not p35) (not p10) p23) (or p34 (not p6) (not p24)) (or (not p34) p14 (not p30)) (or (not p5) (not p39) p15) (or p16 p3 (not p29)) (or (not p54) (not p34) p0) (or p23 p13 (not p20)) (or (not p2) (not p51) (not p23)) (or p1 p0 (not p56)) (or p53 (not p28) p2) (or (not p29) (not p16) (not p30)) (or (not p43) p0 (not p30)) (or p57 (not p10) (not p30)) (or p3 (not p20) (not p43)) (or (not p44) (not p17) p20) (or p46 (not p50) (not p46)) (or (not p16) (not p8) (not p7)) (or (not p26) p16 (not p49)) (or p28 p35 (not p24)) (or p7 (not p49) (not p2)) (or (not p34) (not p8) p50) (or (not p5) (not p45) p50) (or p51 p7 (not p59)) (or p51 p25 (not p24)) (or p25 p5 p46) (or (not p10) (not p34) p16) (or p42 (not p14) p0) (or p59 p30 (not p26)) (or (not p40) (not p49) p14) (or (not p30) (not p34) (not p7)) (or (not p17) p18 p37) (or p29 p10 p4) (or (not p30) (not p43) (not p17)) (or (not p22) p5 p12) (or (not p55) (not p38) p4) (or p17 (not p53) (not p42)) (or p54 (not p10) p24) (or p16 p19 p32) (or p26 (not p44) (not p43)) (or p34 p8 (not p51)) (or p29 p21 p43) (or p24 p36 p2) (or (not p21) (not p17) p6) (or p35 p52 (not p53)) (or (not p8) p20 (not p59)) (or p3 p47 (not p25)) (or (not p12) p40 (not p42)) (or p26 p46 (not p12)) (or (not p57) p48 (not p46)) (or (not p54) (not p42) p2) (or p48 p50 (not p23)) (or p0 p0 p2) (or (not p48) p18 p21) (or (not p52) (not p12) (not p19)) (or (not p51) (not p35) p49) (or (not p23) (not p11) p0) (or p42 p37 p3) (or (not p30) p32 (not p38)) (or (not p59) (not p13) p24) (or (not p2) p27 (not p12)) (or p41 (not p13) (not p2)) (or p11 (not p53) p0) (or p7 p13 p10) (or (not p31) p21 (not p46)) (or p32 p21 p2) (or (not p53) (not p38) p45) (or (not p24) (not p6) p22) (or (not p30) (not p12) (not p54)) (or (not p14) p58 p34) (or p18 (not p3) p9) (or (not p10) (not p35) (not p21)) (or (not p53) p27 (not p41)) (or p47 (not p43) (not p12)) (or p24 p46 (not p1)) (or p27 (not p57) p48) (or p48 p30 p28) (or p7 p41 (not p49)) (or (not p8) (not p42) p25) (or (not p53) p38 (not p45)) (or p9 (not p52) (not p34)) (or p18 p59 p31) (or (not p26) p53 p58) (or (not p28) p22 p38) (or p29 (not p21) (not p36)) (or p49 p22 p59) (or p24 p49 (not p31)) (or (not p7) p20 p45) (or p49 (not p2) p48) (or p11 p11 p22) (or (not p21) (not p17) p13) (or p12 (not p37) (not p3)) (or (not p59) (not p2) p31) (or (not p16) (not p11) p9) (or (not p16) (not p54) (not p13)) (or p7 (not p13) (not p55)) (or p37 (not p47) (not p48)) (or (not p8) p0 (not p1)) (or p53 p14 p3) (or (not p0) p6 (not p55)) (or (not p10) p22 p2) (or (not p4) (not p39) p37) (or (not p36) p23 (not p20)) (or p53 (not p41) (not p5)) (or (not p48) (not p44) (not p14)) (or (not p26) p1 (not p22)) (or p45 p49 (not p32)) (or p46 p17 p33) (or (not p54) (not p24) (not p10)) (or (not p18) (not p26) p1) (or (not p1) (not p3) p54) (or (not p36) p15 (not p55)) (or p33 p38 p2) (or (not p15) (not p29) p19) (or p43 p57 p25) (or (not p10) p33 (not p20)) (or (not p54) (not p24) p17) (or p22 p42 (not p2)) (or p22 (not p47) p36) (or (not p23) p2 p9) (or (not p48) (not p44) (not p40)) (or (not p26) (not p16) p41) (or p47 p29 p54) (or p53 (not p11) (not p43)) (or (not p48) p13 p28) (or p15 (not p26) p27) (or (not p59) p19 p57) (or p51 (not p49) p36) (or p31 (not p36) (not p21)) (or p33 (not p53) p2) (or (not p20) p40 p1) (or (not p6) (not p14) p12) (or p7 (not p5) (not p23)) (or p55 p8 (not p3)) (or p41 p3 p58) (or p54 (not p47) (not p53)) (or p6 (not p38) p56) (or p49 p19 (not p25)) (or p16 (not p10) p6) (or p20 (not p11) p11) (or p40 p44 (not p52)) (or p6 (not p43) (not p5)) (or p48 p11 (not p0)) (or (not p0) p26 p54) (or (not p24) p24 p6) (or (not p45) (not p55) (not p40)) (or p7 p28 (not p30)) (or (not p0) p41 (not p14)) (or (not p7) (not p18) p41) (or p47 p32 (not p17)) (or p10 (not p56) (not p42)) (or p36 (not p18) (not p34)) (or p21 p41 p47) (or (not p9) p7 p0) (or (not p36) p29 (not p33)) (or (not p38) (not p1) p27) (or (not p19) (not p30) (not p1)) (or (not p31) (not p23) p49) (or (not p42) p29 p40) (or p42 (not p58) (not p1)) (or p50 p52 p8) (or p21 (not p31) (not p14)) (or p1 p56 p36) (or (not p55) (not p10) (not p31)) (or p54 (not p44) p24) (or (not p36) p58 p10) (or (not p38) p59 p21) (or p9 p12 (not p35)) (or (not p4) (not p2) (not p4)) (or (not p30) p54 p54) (or p51 p35 p32) (or p27 (not p53) p28) (or p48 p40 (not p49)) (or (not p46) (not p23) p22) (or (not p50) (not p30) (not p15)) (or (not p2) p48 (not p3)) (or (not p26) (not p12) (not p59)) (or (not p18) p20 p54) (or p16 (not p49) (not p26)) (or (not p43) p56 p18) (or (not p11) (not p17) (not p51)) (or (not p7) p21 (not p12)) (or p39 p11 p59) (or (not p5) (not p16) (not p44)) (or p23 p39 p43) (or p23 p40 p34) (or p37 p8 p33) (or (not p22) p13 p32) (or p50 p16 (not p17)) (or (not p23) p10 (not p17)) (or p13 p3 p10) (or p33 (not p11) p21) (or (not p5) (not p26) (not p46)) (or p59 p10 (not p44)) (or p49 p11 (not p4)) (or (not p7) p6 (not p46)) (or (not p51) (not p27) (not p22)) (or (not p54) p1 (not p56)) (or p31 p47 p7) (or (not p19) p17 p31) (or p33 (not p52) (not p13)) (or p51 p1 (not p56)) (or p40 p15 (not p6)) (or p32 p17 (not p35)) (or p24 (not p51) p54) (or (not p19) (not p12) (not p33)) (or (not p50) p35 p43) (or (not p4) (not p44) (not p22)) (or (not p57) (not p24) p54) (or p47 (not p40) (not p36)) (or p41 (not p25) (not p4)) (or p55 p21 (not p27)) (or (not p56) p15 (not p19)) (or p2 p21 (not p23)) (or (not p2) (not p7) p16) (or (not p59) (not p3) p3) (or p14 (not p20) p22) (or (not p35) p44 (not p12)) (or p45 (not p2) p47) (or p19 p57 (not p49)) (or p11 (not p39) (not p37)) (or (not p4) p27 p0) (or p29 p11 (not p55)) (or p51 (not p29) p10) (or (not p17) p31 p7) (or p27 (not p47) (not p17)) (or p54 (not p8) (not p12)) (or p38 (not p59) p44))
)
(check-sat)
(get-model)
